c File: flat30_3_0.col
c
c SOURCE: Joseph Culberson (joe@cs.ualberta.ca)
c DESCRIPTION: Quasi-random coloring problem
c              generated with flatness = 0
c                             probability = 0.200
c                             known coloring = 3
c                             random seed = 230149
c              Creation Date:  Fri Nov 29 22:01:47 1996
c Maximum degree = 6 Minimum degree = 1
c
c cnf created by edge2cnf
p cnf 90 300
-1 -2 0
-1 -3 0
-2 -3 0
1 2 3 0
-4 -5 0
-4 -6 0
-5 -6 0
4 5 6 0
-7 -8 0
-7 -9 0
-8 -9 0
7 8 9 0
-10 -11 0
-10 -12 0
-11 -12 0
10 11 12 0
-13 -14 0
-13 -15 0
-14 -15 0
13 14 15 0
-16 -17 0
-16 -18 0
-17 -18 0
16 17 18 0
-19 -20 0
-19 -21 0
-20 -21 0
19 20 21 0
-22 -23 0
-22 -24 0
-23 -24 0
22 23 24 0
-25 -26 0
-25 -27 0
-26 -27 0
25 26 27 0
-28 -29 0
-28 -30 0
-29 -30 0
28 29 30 0
-31 -32 0
-31 -33 0
-32 -33 0
31 32 33 0
-34 -35 0
-34 -36 0
-35 -36 0
34 35 36 0
-37 -38 0
-37 -39 0
-38 -39 0
37 38 39 0
-40 -41 0
-40 -42 0
-41 -42 0
40 41 42 0
-43 -44 0
-43 -45 0
-44 -45 0
43 44 45 0
-46 -47 0
-46 -48 0
-47 -48 0
46 47 48 0
-49 -50 0
-49 -51 0
-50 -51 0
49 50 51 0
-52 -53 0
-52 -54 0
-53 -54 0
52 53 54 0
-55 -56 0
-55 -57 0
-56 -57 0
55 56 57 0
-58 -59 0
-58 -60 0
-59 -60 0
58 59 60 0
-61 -62 0
-61 -63 0
-62 -63 0
61 62 63 0
-64 -65 0
-64 -66 0
-65 -66 0
64 65 66 0
-67 -68 0
-67 -69 0
-68 -69 0
67 68 69 0
-70 -71 0
-70 -72 0
-71 -72 0
70 71 72 0
-73 -74 0
-73 -75 0
-74 -75 0
73 74 75 0
-76 -77 0
-76 -78 0
-77 -78 0
76 77 78 0
-79 -80 0
-79 -81 0
-80 -81 0
79 80 81 0
-82 -83 0
-82 -84 0
-83 -84 0
82 83 84 0
-85 -86 0
-85 -87 0
-86 -87 0
85 86 87 0
-88 -89 0
-88 -90 0
-89 -90 0
88 89 90 0
-31 -1 0
-32 -2 0
-33 -3 0
-52 -1 0
-53 -2 0
-54 -3 0
-85 -1 0
-86 -2 0
-87 -3 0
-88 -1 0
-89 -2 0
-90 -3 0
-67 -4 0
-68 -5 0
-69 -6 0
-70 -4 0
-71 -5 0
-72 -6 0
-31 -7 0
-32 -8 0
-33 -9 0
-46 -7 0
-47 -8 0
-48 -9 0
-88 -7 0
-89 -8 0
-90 -9 0
-37 -10 0
-38 -11 0
-39 -12 0
-40 -10 0
-41 -11 0
-42 -12 0
-52 -10 0
-53 -11 0
-54 -12 0
-79 -10 0
-80 -11 0
-81 -12 0
-34 -13 0
-35 -14 0
-36 -15 0
-43 -13 0
-44 -14 0
-45 -15 0
-49 -13 0
-50 -14 0
-51 -15 0
-61 -13 0
-62 -14 0
-63 -15 0
-79 -13 0
-80 -14 0
-81 -15 0
-31 -16 0
-32 -17 0
-33 -18 0
-64 -16 0
-65 -17 0
-66 -18 0
-79 -16 0
-80 -17 0
-81 -18 0
-82 -16 0
-83 -17 0
-84 -18 0
-34 -19 0
-35 -20 0
-36 -21 0
-37 -19 0
-38 -20 0
-39 -21 0
-40 -19 0
-41 -20 0
-42 -21 0
-76 -19 0
-77 -20 0
-78 -21 0
-43 -22 0
-44 -23 0
-45 -24 0
-58 -22 0
-59 -23 0
-60 -24 0
-61 -22 0
-62 -23 0
-63 -24 0
-64 -22 0
-65 -23 0
-66 -24 0
-85 -22 0
-86 -23 0
-87 -24 0
-34 -25 0
-35 -26 0
-36 -27 0
-55 -25 0
-56 -26 0
-57 -27 0
-67 -25 0
-68 -26 0
-69 -27 0
-70 -25 0
-71 -26 0
-72 -27 0
-82 -25 0
-83 -26 0
-84 -27 0
-40 -28 0
-41 -29 0
-42 -30 0
-52 -28 0
-53 -29 0
-54 -30 0
-70 -28 0
-71 -29 0
-72 -30 0
-88 -28 0
-89 -29 0
-90 -30 0
-76 -31 0
-77 -32 0
-78 -33 0
-88 -31 0
-89 -32 0
-90 -33 0
-67 -34 0
-68 -35 0
-69 -36 0
-76 -34 0
-77 -35 0
-78 -36 0
-73 -37 0
-74 -38 0
-75 -39 0
-82 -37 0
-83 -38 0
-84 -39 0
-88 -37 0
-89 -38 0
-90 -39 0
-64 -40 0
-65 -41 0
-66 -42 0
-85 -40 0
-86 -41 0
-87 -42 0
-85 -43 0
-86 -44 0
-87 -45 0
-64 -46 0
-65 -47 0
-66 -48 0
-67 -46 0
-68 -47 0
-69 -48 0
-82 -49 0
-83 -50 0
-84 -51 0
-88 -49 0
-89 -50 0
-90 -51 0
-61 -52 0
-62 -53 0
-63 -54 0
-82 -52 0
-83 -53 0
-84 -54 0
-67 -55 0
-68 -56 0
-69 -57 0
-70 -55 0
-71 -56 0
-72 -57 0
-85 -55 0
-86 -56 0
-87 -57 0
-61 -58 0
-62 -59 0
-63 -60 0
